<number of tasks>
50

<cycle time>
1000

<order strength>
0.599


<task times>
1 89
2 209
3 180
4 69
5 131
6 133
7 151
8 175
9 71
10 94
11 207
12 30
13 75
14 128
15 189
16 61
17 159
18 198
19 97
20 33
21 26
22 73
23 115
24 255
25 146
26 102
27 250
28 61
29 91
30 41
31 225
32 88
33 99
34 79
35 148
36 56
37 269
38 87
39 71
40 156
41 95
42 161
43 221
44 164
45 206
46 131
47 55
48 170
49 93
50 233

<precedence relations>
1,5
2,7
3,6
3,9
4,8
4,9
5,10
6,11
7,12
8,13
8,14
9,13
9,14
10,18
11,15
12,16
13,17
13,18
13,19
13,20
14,17
14,18
14,19
14,20
15,22
16,23
17,21
17,23
17,24
17,25
18,23
18,25
19,23
19,24
19,25
20,23
20,24
20,25
21,26
22,27
23,28
23,29
23,30
23,31
24,29
24,30
24,31
25,29
25,34
25,35
26,33
27,34
28,32
29,38
30,33
31,33
31,34
31,35
32,36
33,37
33,38
34,37
34,49
35,47
36,41
37,39
37,45
38,40
38,42
38,45
39,43
40,44
41,45
42,46
42,47
43,48
44,48
45,50
47,49

<end>
